1737.23 0
0 50 100 64 3 4 0
0 74 98 29 28 99 76 73 72 75 77 0
0 10 80 71 79 96 58 0
0 54 61 11 27 16 24 20 18 15 88 86 14 92 22 13 26 21 9 0
0 5 7 8 19 17 40 82 84 48 45 33 34 42 43 44 46 0
0 67 78 0
0 69 68 65 66 70 89 25 91 87 90 12 23 0
0 6 47 49 35 59 0
0 97 94 0
0 93 95 30 31 39 32 36 41 38 60 57 0
0 55 62 37 83 85 81 51 2 63 52 53 1 56 0
